milp_2char/collision/skinny_r14u.sol
# Objective value = 86
sbox[0,0,0] 0
sbox[0,0,1] 0
sbox[0,0,2] 0
sbox[0,0,3] 0
sbox[0,0,4] 0
sbox[0,0,5] 0
sbox[0,0,6] 1
sbox[0,0,7] 0
sbox[0,0,8] 0
sbox[0,0,9] 1
sbox[0,0,10] 0
sbox[0,0,11] 0
sbox[0,0,12] 0
sbox[0,0,13] 1
sbox[0,0,14] 0
sbox[0,1,0] 0
sbox[0,1,1] 0
sbox[0,1,2] 1
sbox[0,1,3] 0
sbox[0,1,4] 0
sbox[0,1,5] 0
sbox[0,1,6] 0
sbox[0,1,7] 0
sbox[0,1,8] 1
sbox[0,1,9] 0
sbox[0,1,10] 1
sbox[0,1,11] 0
sbox[0,1,12] 1
sbox[0,1,13] 0
sbox[0,1,14] 0
sbox[0,2,0] 0
sbox[0,2,1] 1
sbox[0,2,2] 0
sbox[0,2,3] 0
sbox[0,2,4] 0
sbox[0,2,5] 0
sbox[0,2,6] 0
sbox[0,2,7] 0
sbox[0,2,8] 0
sbox[0,2,9] 1
sbox[0,2,10] 0
sbox[0,2,11] 0
sbox[0,2,12] 0
sbox[0,2,13] 0
sbox[0,2,14] 0
sbox[0,3,0] 0
sbox[0,3,1] 0
sbox[0,3,2] 0
sbox[0,3,3] 1
sbox[0,3,4] 0
sbox[0,3,5] 0
sbox[0,3,6] 0
sbox[0,3,7] 0
sbox[0,3,8] 1
sbox[0,3,9] 0
sbox[0,3,10] 0
sbox[0,3,11] 0
sbox[0,3,12] 0
sbox[0,3,13] 0
sbox[0,3,14] 0
sbox[1,0,0] 0
sbox[1,0,1] 0
sbox[1,0,2] 0
sbox[1,0,3] 0
sbox[1,0,4] 0
sbox[1,0,5] 0
sbox[1,0,6] 0
sbox[1,0,7] 0
sbox[1,0,8] 0
sbox[1,0,9] 0
sbox[1,0,10] 1
sbox[1,0,11] 0
sbox[1,0,12] 0
sbox[1,0,13] 0
sbox[1,0,14] 0
sbox[1,1,0] 0
sbox[1,1,1] 0
sbox[1,1,2] 0
sbox[1,1,3] 1
sbox[1,1,4] 0
sbox[1,1,5] 1
sbox[1,1,6] 0
sbox[1,1,7] 0
sbox[1,1,8] 1
sbox[1,1,9] 1
sbox[1,1,10] 0
sbox[1,1,11] 1
sbox[1,1,12] 1
sbox[1,1,13] 0
sbox[1,1,14] 0
sbox[1,2,0] 0
sbox[1,2,1] 1
sbox[1,2,2] 1
sbox[1,2,3] 0
sbox[1,2,4] 0
sbox[1,2,5] 0
sbox[1,2,6] 0
sbox[1,2,7] 1
sbox[1,2,8] 0
sbox[1,2,9] 1
sbox[1,2,10] 1
sbox[1,2,11] 0
sbox[1,2,12] 1
sbox[1,2,13] 0
sbox[1,2,14] 0
sbox[1,3,0] 0
sbox[1,3,1] 0
sbox[1,3,2] 0
sbox[1,3,3] 0
sbox[1,3,4] 0
sbox[1,3,5] 0
sbox[1,3,6] 0
sbox[1,3,7] 0
sbox[1,3,8] 1
sbox[1,3,9] 0
sbox[1,3,10] 0
sbox[1,3,11] 0
sbox[1,3,12] 0
sbox[1,3,13] 0
sbox[1,3,14] 0
sbox[2,0,0] 0
sbox[2,0,1] 1
sbox[2,0,2] 0
sbox[2,0,3] 1
sbox[2,0,4] 0
sbox[2,0,5] 0
sbox[2,0,6] 1
sbox[2,0,7] 0
sbox[2,0,8] 0
sbox[2,0,9] 1
sbox[2,0,10] 0
sbox[2,0,11] 1
sbox[2,0,12] 0
sbox[2,0,13] 0
sbox[2,0,14] 0
sbox[2,1,0] 0
sbox[2,1,1] 0
sbox[2,1,2] 1
sbox[2,1,3] 0
sbox[2,1,4] 0
sbox[2,1,5] 0
sbox[2,1,6] 0
sbox[2,1,7] 0
sbox[2,1,8] 0
sbox[2,1,9] 0
sbox[2,1,10] 0
sbox[2,1,11] 0
sbox[2,1,12] 0
sbox[2,1,13] 0
sbox[2,1,14] 0
sbox[2,2,0] 0
sbox[2,2,1] 0
sbox[2,2,2] 0
sbox[2,2,3] 0
sbox[2,2,4] 0
sbox[2,2,5] 0
sbox[2,2,6] 0
sbox[2,2,7] 0
sbox[2,2,8] 0
sbox[2,2,9] 1
sbox[2,2,10] 0
sbox[2,2,11] 0
sbox[2,2,12] 0
sbox[2,2,13] 0
sbox[2,2,14] 0
sbox[2,3,0] 0
sbox[2,3,1] 0
sbox[2,3,2] 1
sbox[2,3,3] 0
sbox[2,3,4] 0
sbox[2,3,5] 0
sbox[2,3,6] 0
sbox[2,3,7] 0
sbox[2,3,8] 1
sbox[2,3,9] 0
sbox[2,3,10] 1
sbox[2,3,11] 0
sbox[2,3,12] 0
sbox[2,3,13] 0
sbox[2,3,14] 0
sbox[3,0,0] 0
sbox[3,0,1] 0
sbox[3,0,2] 0
sbox[3,0,3] 0
sbox[3,0,4] 0
sbox[3,0,5] 0
sbox[3,0,6] 0
sbox[3,0,7] 0
sbox[3,0,8] 0
sbox[3,0,9] 0
sbox[3,0,10] 0
sbox[3,0,11] 0
sbox[3,0,12] 0
sbox[3,0,13] 0
sbox[3,0,14] 0
sbox[3,1,0] 0
sbox[3,1,1] 0
sbox[3,1,2] 0
sbox[3,1,3] 0
sbox[3,1,4] 0
sbox[3,1,5] 1
sbox[3,1,6] 0
sbox[3,1,7] 0
sbox[3,1,8] 1
sbox[3,1,9] 0
sbox[3,1,10] 0
sbox[3,1,11] 0
sbox[3,1,12] 1
sbox[3,1,13] 0
sbox[3,1,14] 0
sbox[3,2,0] 0
sbox[3,2,1] 1
sbox[3,2,2] 0
sbox[3,2,3] 0
sbox[3,2,4] 1
sbox[3,2,5] 0
sbox[3,2,6] 0
sbox[3,2,7] 0
sbox[3,2,8] 0
sbox[3,2,9] 1
sbox[3,2,10] 0
sbox[3,2,11] 0
sbox[3,2,12] 0
sbox[3,2,13] 0
sbox[3,2,14] 0
sbox[3,3,0] 0
sbox[3,3,1] 0
sbox[3,3,2] 0
sbox[3,3,3] 1
sbox[3,3,4] 0
sbox[3,3,5] 0
sbox[3,3,6] 0
sbox[3,3,7] 0
sbox[3,3,8] 1
sbox[3,3,9] 0
sbox[3,3,10] 0
sbox[3,3,11] 0
sbox[3,3,12] 0
sbox[3,3,13] 0
sbox[3,3,14] 0
rkey[0,0,0] 0
rkey[0,0,1] 0
rkey[0,0,2] 0
rkey[0,0,3] 0
rkey[0,0,4] 0
rkey[0,0,5] 0
rkey[0,0,6] 0
rkey[0,0,7] 0
rkey[0,0,8] 0
rkey[0,0,9] 1
rkey[0,0,10] 0
rkey[0,0,11] 0
rkey[0,0,12] 0
rkey[0,0,13] 0
rkey[0,0,14] 0
rkey[0,1,0] 0
rkey[0,1,1] 0
rkey[0,1,2] 1
rkey[0,1,3] 0
rkey[0,1,4] 1
rkey[0,1,5] 0
rkey[0,1,6] 0
rkey[0,1,7] 1
rkey[0,1,8] 1
rkey[0,1,9] 0
rkey[0,1,10] 1
rkey[0,1,11] 1
rkey[0,1,12] 0
rkey[0,1,13] 0
rkey[0,1,14] 0
rkey[0,2,0] 1
rkey[0,2,1] 1
rkey[0,2,2] 0
rkey[0,2,3] 0
rkey[0,2,4] 0
rkey[0,2,5] 0
rkey[0,2,6] 1
rkey[0,2,7] 0
rkey[0,2,8] 1
rkey[0,2,9] 1
rkey[0,2,10] 0
rkey[0,2,11] 1
rkey[0,2,12] 0
rkey[0,2,13] 0
rkey[0,2,14] 0
rkey[0,3,0] 0
rkey[0,3,1] 0
rkey[0,3,2] 0
rkey[0,3,3] 0
rkey[0,3,4] 0
rkey[0,3,5] 0
rkey[0,3,6] 0
rkey[0,3,7] 1
rkey[0,3,8] 0
rkey[0,3,9] 0
rkey[0,3,10] 0
rkey[0,3,11] 0
rkey[0,3,12] 0
rkey[0,3,13] 0
rkey[0,3,14] 0
rkey[1,0,0] 0
rkey[1,0,1] 1
rkey[1,0,2] 1
rkey[1,0,3] 0
rkey[1,0,4] 0
rkey[1,0,5] 0
rkey[1,0,6] 0
rkey[1,0,7] 0
rkey[1,0,8] 1
rkey[1,0,9] 0
rkey[1,0,10] 1
rkey[1,0,11] 0
rkey[1,0,12] 0
rkey[1,0,13] 0
rkey[1,0,14] 0
rkey[1,1,0] 0
rkey[1,1,1] 1
rkey[1,1,2] 0
rkey[1,1,3] 1
rkey[1,1,4] 0
rkey[1,1,5] 0
rkey[1,1,6] 1
rkey[1,1,7] 0
rkey[1,1,8] 1
rkey[1,1,9] 1
rkey[1,1,10] 0
rkey[1,1,11] 1
rkey[1,1,12] 0
rkey[1,1,13] 0
rkey[1,1,14] 0
rkey[1,2,0] 0
rkey[1,2,1] 1
rkey[1,2,2] 1
rkey[1,2,3] 0
rkey[1,2,4] 0
rkey[1,2,5] 0
rkey[1,2,6] 0
rkey[1,2,7] 1
rkey[1,2,8] 0
rkey[1,2,9] 1
rkey[1,2,10] 0
rkey[1,2,11] 0
rkey[1,2,12] 0
rkey[1,2,13] 0
rkey[1,2,14] 0
rkey[1,3,0] 1
rkey[1,3,1] 0
rkey[1,3,2] 1
rkey[1,3,3] 0
rkey[1,3,4] 0
rkey[1,3,5] 1
rkey[1,3,6] 0
rkey[1,3,7] 0
rkey[1,3,8] 1
rkey[1,3,9] 1
rkey[1,3,10] 1
rkey[1,3,11] 0
rkey[1,3,12] 0
rkey[1,3,13] 0
rkey[1,3,14] 0
rkey[2,0,0] 0
rkey[2,0,1] 1
rkey[2,0,2] 0
rkey[2,0,3] 1
rkey[2,0,4] 0
rkey[2,0,5] 0
rkey[2,0,6] 1
rkey[2,0,7] 0
rkey[2,0,8] 0
rkey[2,0,9] 1
rkey[2,0,10] 0
rkey[2,0,11] 1
rkey[2,0,12] 0
rkey[2,0,13] 0
rkey[2,0,14] 0
rkey[2,1,0] 0
rkey[2,1,1] 0
rkey[2,1,2] 1
rkey[2,1,3] 0
rkey[2,1,4] 0
rkey[2,1,5] 0
rkey[2,1,6] 0
rkey[2,1,7] 0
rkey[2,1,8] 0
rkey[2,1,9] 0
rkey[2,1,10] 0
rkey[2,1,11] 0
rkey[2,1,12] 0
rkey[2,1,13] 0
rkey[2,1,14] 0
rkey[2,2,0] 0
rkey[2,2,1] 0
rkey[2,2,2] 0
rkey[2,2,3] 0
rkey[2,2,4] 0
rkey[2,2,5] 0
rkey[2,2,6] 0
rkey[2,2,7] 0
rkey[2,2,8] 0
rkey[2,2,9] 1
rkey[2,2,10] 0
rkey[2,2,11] 0
rkey[2,2,12] 0
rkey[2,2,13] 0
rkey[2,2,14] 0
rkey[2,3,0] 0
rkey[2,3,1] 0
rkey[2,3,2] 1
rkey[2,3,3] 0
rkey[2,3,4] 0
rkey[2,3,5] 0
rkey[2,3,6] 0
rkey[2,3,7] 0
rkey[2,3,8] 1
rkey[2,3,9] 0
rkey[2,3,10] 1
rkey[2,3,11] 0
rkey[2,3,12] 0
rkey[2,3,13] 0
rkey[2,3,14] 0
rkey[3,0,0] 0
rkey[3,0,1] 0
rkey[3,0,2] 0
rkey[3,0,3] 0
rkey[3,0,4] 0
rkey[3,0,5] 0
rkey[3,0,6] 0
rkey[3,0,7] 0
rkey[3,0,8] 0
rkey[3,0,9] 0
rkey[3,0,10] 0
rkey[3,0,11] 0
rkey[3,0,12] 0
rkey[3,0,13] 0
rkey[3,0,14] 0
rkey[3,1,0] 0
rkey[3,1,1] 0
rkey[3,1,2] 0
rkey[3,1,3] 0
rkey[3,1,4] 0
rkey[3,1,5] 1
rkey[3,1,6] 0
rkey[3,1,7] 0
rkey[3,1,8] 1
rkey[3,1,9] 0
rkey[3,1,10] 0
rkey[3,1,11] 0
rkey[3,1,12] 1
rkey[3,1,13] 0
rkey[3,1,14] 0
rkey[3,2,0] 0
rkey[3,2,1] 1
rkey[3,2,2] 0
rkey[3,2,3] 0
rkey[3,2,4] 1
rkey[3,2,5] 0
rkey[3,2,6] 0
rkey[3,2,7] 0
rkey[3,2,8] 0
rkey[3,2,9] 1
rkey[3,2,10] 0
rkey[3,2,11] 0
rkey[3,2,12] 0
rkey[3,2,13] 0
rkey[3,2,14] 0
rkey[3,3,0] 0
rkey[3,3,1] 0
rkey[3,3,2] 0
rkey[3,3,3] 1
rkey[3,3,4] 0
rkey[3,3,5] 0
rkey[3,3,6] 0
rkey[3,3,7] 0
rkey[3,3,8] 1
rkey[3,3,9] 0
rkey[3,3,10] 0
rkey[3,3,11] 0
rkey[3,3,12] 0
rkey[3,3,13] 0
rkey[3,3,14] 0
tkey[0,0,0] 0
tkey[0,0,1] 0
tkey[0,0,2] 0
tkey[0,0,3] 0
tkey[0,0,4] 0
tkey[0,0,5] 0
tkey[0,0,6] 1
tkey[0,0,7] 0
tkey[0,0,8] 0
tkey[0,0,9] 1
tkey[0,0,10] 0
tkey[0,0,11] 0
tkey[0,0,12] 0
tkey[0,0,13] 1
tkey[0,0,14] 0
tkey[0,1,0] 0
tkey[0,1,1] 0
tkey[0,1,2] 1
tkey[0,1,3] 0
tkey[0,1,4] 1
tkey[0,1,5] 0
tkey[0,1,6] 0
tkey[0,1,7] 1
tkey[0,1,8] 0
tkey[0,1,9] 0
tkey[0,1,10] 0
tkey[0,1,11] 1
tkey[0,1,12] 1
tkey[0,1,13] 0
tkey[0,1,14] 0
tkey[0,2,0] 1
tkey[0,2,1] 0
tkey[0,2,2] 0
tkey[0,2,3] 0
tkey[0,2,4] 0
tkey[0,2,5] 0
tkey[0,2,6] 1
tkey[0,2,7] 0
tkey[0,2,8] 1
tkey[0,2,9] 0
tkey[0,2,10] 0
tkey[0,2,11] 1
tkey[0,2,12] 0
tkey[0,2,13] 0
tkey[0,2,14] 0
tkey[0,3,0] 0
tkey[0,3,1] 0
tkey[0,3,2] 0
tkey[0,3,3] 1
tkey[0,3,4] 0
tkey[0,3,5] 0
tkey[0,3,6] 0
tkey[0,3,7] 1
tkey[0,3,8] 1
tkey[0,3,9] 0
tkey[0,3,10] 0
tkey[0,3,11] 0
tkey[0,3,12] 0
tkey[0,3,13] 0
tkey[0,3,14] 0
tkey[1,0,0] 0
tkey[1,0,1] 1
tkey[1,0,2] 1
tkey[1,0,3] 0
tkey[1,0,4] 0
tkey[1,0,5] 0
tkey[1,0,6] 0
tkey[1,0,7] 0
tkey[1,0,8] 1
tkey[1,0,9] 0
tkey[1,0,10] 1
tkey[1,0,11] 0
tkey[1,0,12] 0
tkey[1,0,13] 0
tkey[1,0,14] 0
tkey[1,1,0] 0
tkey[1,1,1] 1
tkey[1,1,2] 0
tkey[1,1,3] 0
tkey[1,1,4] 0
tkey[1,1,5] 1
tkey[1,1,6] 1
tkey[1,1,7] 0
tkey[1,1,8] 0
tkey[1,1,9] 0
tkey[1,1,10] 0
tkey[1,1,11] 0
tkey[1,1,12] 1
tkey[1,1,13] 0
tkey[1,1,14] 0
tkey[1,2,0] 0
tkey[1,2,1] 0
tkey[1,2,2] 0
tkey[1,2,3] 0
tkey[1,2,4] 0
tkey[1,2,5] 0
tkey[1,2,6] 0
tkey[1,2,7] 0
tkey[1,2,8] 0
tkey[1,2,9] 0
tkey[1,2,10] 1
tkey[1,2,11] 0
tkey[1,2,12] 1
tkey[1,2,13] 0
tkey[1,2,14] 0
tkey[1,3,0] 1
tkey[1,3,1] 0
tkey[1,3,2] 1
tkey[1,3,3] 0
tkey[1,3,4] 0
tkey[1,3,5] 1
tkey[1,3,6] 0
tkey[1,3,7] 0
tkey[1,3,8] 0
tkey[1,3,9] 1
tkey[1,3,10] 1
tkey[1,3,11] 0
tkey[1,3,12] 0
tkey[1,3,13] 0
tkey[1,3,14] 0
tkey[2,0,0] 0
tkey[2,0,1] 0
tkey[2,0,2] 0
tkey[2,0,3] 0
tkey[2,0,4] 0
tkey[2,0,5] 1
tkey[2,0,6] 0
tkey[2,0,7] 1
tkey[2,0,8] 0
tkey[2,0,9] 0
tkey[2,0,10] 1
tkey[2,0,11] 0
tkey[2,0,12] 0
tkey[2,0,13] 0
tkey[2,0,14] 0
tkey[2,1,0] 0
tkey[2,1,1] 0
tkey[2,1,2] 0
tkey[2,1,3] 1
tkey[2,1,4] 0
tkey[2,1,5] 1
tkey[2,1,6] 0
tkey[2,1,7] 0
tkey[2,1,8] 1
tkey[2,1,9] 0
tkey[2,1,10] 0
tkey[2,1,11] 0
tkey[2,1,12] 1
tkey[2,1,13] 1
tkey[2,1,14] 0
tkey[2,2,0] 1
tkey[2,2,1] 1
tkey[2,2,2] 0
tkey[2,2,3] 0
tkey[2,2,4] 0
tkey[2,2,5] 0
tkey[2,2,6] 0
tkey[2,2,7] 1
tkey[2,2,8] 0
tkey[2,2,9] 1
tkey[2,2,10] 0
tkey[2,2,11] 0
tkey[2,2,12] 1
tkey[2,2,13] 0
tkey[2,2,14] 0
tkey[2,3,0] 0
tkey[2,3,1] 1
tkey[2,3,2] 0
tkey[2,3,3] 0
tkey[2,3,4] 1
tkey[2,3,5] 0
tkey[2,3,6] 0
tkey[2,3,7] 0
tkey[2,3,8] 1
tkey[2,3,9] 1
tkey[2,3,10] 0
tkey[2,3,11] 0
tkey[2,3,12] 0
tkey[2,3,13] 0
tkey[2,3,14] 0
tkey[3,0,0] 0
tkey[3,0,1] 0
tkey[3,0,2] 1
tkey[3,0,3] 1
tkey[3,0,4] 0
tkey[3,0,5] 0
tkey[3,0,6] 0
tkey[3,0,7] 0
tkey[3,0,8] 0
tkey[3,0,9] 1
tkey[3,0,10] 0
tkey[3,0,11] 1
tkey[3,0,12] 0
tkey[3,0,13] 0
tkey[3,0,14] 0
tkey[3,1,0] 0
tkey[3,1,1] 0
tkey[3,1,2] 1
tkey[3,1,3] 0
tkey[3,1,4] 0
tkey[3,1,5] 0
tkey[3,1,6] 1
tkey[3,1,7] 1
tkey[3,1,8] 0
tkey[3,1,9] 0
tkey[3,1,10] 0
tkey[3,1,11] 0
tkey[3,1,12] 0
tkey[3,1,13] 1
tkey[3,1,14] 0
tkey[3,2,0] 1
tkey[3,2,1] 0
tkey[3,2,2] 0
tkey[3,2,3] 0
tkey[3,2,4] 1
tkey[3,2,5] 1
tkey[3,2,6] 0
tkey[3,2,7] 0
tkey[3,2,8] 0
tkey[3,2,9] 0
tkey[3,2,10] 0
tkey[3,2,11] 1
tkey[3,2,12] 0
tkey[3,2,13] 1
tkey[3,2,14] 0
tkey[3,3,0] 0
tkey[3,3,1] 1
tkey[3,3,2] 0
tkey[3,3,3] 1
tkey[3,3,4] 0
tkey[3,3,5] 0
tkey[3,3,6] 1
tkey[3,3,7] 0
tkey[3,3,8] 0
tkey[3,3,9] 0
tkey[3,3,10] 1
tkey[3,3,11] 1
tkey[3,3,12] 0
tkey[3,3,13] 0
tkey[3,3,14] 0
tbox[0,0,0] 1
tbox[0,0,1] 1
tbox[0,0,2] 1
tbox[0,0,3] 1
tbox[0,0,4] 1
tbox[0,0,5] 1
tbox[0,0,6] 1
tbox[0,0,7] 1
tbox[0,0,8] 1
tbox[0,0,9] 1
tbox[0,0,10] 1
tbox[0,0,11] 1
tbox[0,0,12] 1
tbox[0,0,13] 1
tbox[0,0,14] 1
tbox[0,1,0] 0
tbox[0,1,1] 0
tbox[0,1,2] 0
tbox[0,1,3] 0
tbox[0,1,4] 1
tbox[0,1,5] 1
tbox[0,1,6] 1
tbox[0,1,7] 1
tbox[0,1,8] 1
tbox[0,1,9] 1
tbox[0,1,10] 1
tbox[0,1,11] 1
tbox[0,1,12] 1
tbox[0,1,13] 1
tbox[0,1,14] 1
tbox[0,2,0] 0
tbox[0,2,1] 0
tbox[0,2,2] 0
tbox[0,2,3] 0
tbox[0,2,4] 1
tbox[0,2,5] 1
tbox[0,2,6] 1
tbox[0,2,7] 1
tbox[0,2,8] 1
tbox[0,2,9] 1
tbox[0,2,10] 1
tbox[0,2,11] 1
tbox[0,2,12] 1
tbox[0,2,13] 1
tbox[0,2,14] 1
tbox[0,3,0] 0
tbox[0,3,1] 0
tbox[0,3,2] 1
tbox[0,3,3] 1
tbox[0,3,4] 1
tbox[0,3,5] 1
tbox[0,3,6] 1
tbox[0,3,7] 1
tbox[0,3,8] 1
tbox[0,3,9] 1
tbox[0,3,10] 1
tbox[0,3,11] 1
tbox[0,3,12] 1
tbox[0,3,13] 1
tbox[0,3,14] 1
tbox[1,0,0] 0
tbox[1,0,1] 1
tbox[1,0,2] 1
tbox[1,0,3] 1
tbox[1,0,4] 1
tbox[1,0,5] 1
tbox[1,0,6] 1
tbox[1,0,7] 1
tbox[1,0,8] 1
tbox[1,0,9] 1
tbox[1,0,10] 1
tbox[1,0,11] 1
tbox[1,0,12] 1
tbox[1,0,13] 1
tbox[1,0,14] 1
tbox[1,1,0] 0
tbox[1,1,1] 0
tbox[1,1,2] 0
tbox[1,1,3] 0
tbox[1,1,4] 0
tbox[1,1,5] 1
tbox[1,1,6] 1
tbox[1,1,7] 1
tbox[1,1,8] 1
tbox[1,1,9] 1
tbox[1,1,10] 1
tbox[1,1,11] 1
tbox[1,1,12] 1
tbox[1,1,13] 1
tbox[1,1,14] 1
tbox[1,2,0] 0
tbox[1,2,1] 0
tbox[1,2,2] 0
tbox[1,2,3] 0
tbox[1,2,4] 0
tbox[1,2,5] 1
tbox[1,2,6] 1
tbox[1,2,7] 1
tbox[1,2,8] 1
tbox[1,2,9] 1
tbox[1,2,10] 1
tbox[1,2,11] 1
tbox[1,2,12] 1
tbox[1,2,13] 1
tbox[1,2,14] 1
tbox[1,3,0] 0
tbox[1,3,1] 0
tbox[1,3,2] 0
tbox[1,3,3] 1
tbox[1,3,4] 1
tbox[1,3,5] 1
tbox[1,3,6] 1
tbox[1,3,7] 1
tbox[1,3,8] 1
tbox[1,3,9] 1
tbox[1,3,10] 1
tbox[1,3,11] 1
tbox[1,3,12] 1
tbox[1,3,13] 1
tbox[1,3,14] 1
tbox[2,0,0] 0
tbox[2,0,1] 0
tbox[2,0,2] 0
tbox[2,0,3] 0
tbox[2,0,4] 1
tbox[2,0,5] 1
tbox[2,0,6] 1
tbox[2,0,7] 1
tbox[2,0,8] 1
tbox[2,0,9] 1
tbox[2,0,10] 1
tbox[2,0,11] 1
tbox[2,0,12] 1
tbox[2,0,13] 1
tbox[2,0,14] 1
tbox[2,1,0] 0
tbox[2,1,1] 0
tbox[2,1,2] 1
tbox[2,1,3] 1
tbox[2,1,4] 1
tbox[2,1,5] 1
tbox[2,1,6] 1
tbox[2,1,7] 1
tbox[2,1,8] 1
tbox[2,1,9] 1
tbox[2,1,10] 1
tbox[2,1,11] 1
tbox[2,1,12] 1
tbox[2,1,13] 1
tbox[2,1,14] 1
tbox[2,2,0] 0
tbox[2,2,1] 0
tbox[2,2,2] 0
tbox[2,2,3] 0
tbox[2,2,4] 0
tbox[2,2,5] 1
tbox[2,2,6] 1
tbox[2,2,7] 1
tbox[2,2,8] 1
tbox[2,2,9] 1
tbox[2,2,10] 1
tbox[2,2,11] 1
tbox[2,2,12] 1
tbox[2,2,13] 1
tbox[2,2,14] 1
tbox[2,3,0] 0
tbox[2,3,1] 0
tbox[2,3,2] 0
tbox[2,3,3] 1
tbox[2,3,4] 1
tbox[2,3,5] 1
tbox[2,3,6] 1
tbox[2,3,7] 1
tbox[2,3,8] 1
tbox[2,3,9] 1
tbox[2,3,10] 1
tbox[2,3,11] 1
tbox[2,3,12] 1
tbox[2,3,13] 1
tbox[2,3,14] 1
tbox[3,0,0] 0
tbox[3,0,1] 1
tbox[3,0,2] 1
tbox[3,0,3] 1
tbox[3,0,4] 1
tbox[3,0,5] 1
tbox[3,0,6] 1
tbox[3,0,7] 1
tbox[3,0,8] 1
tbox[3,0,9] 1
tbox[3,0,10] 1
tbox[3,0,11] 1
tbox[3,0,12] 1
tbox[3,0,13] 1
tbox[3,0,14] 1
tbox[3,1,0] 0
tbox[3,1,1] 0
tbox[3,1,2] 0
tbox[3,1,3] 0
tbox[3,1,4] 1
tbox[3,1,5] 1
tbox[3,1,6] 1
tbox[3,1,7] 1
tbox[3,1,8] 1
tbox[3,1,9] 1
tbox[3,1,10] 1
tbox[3,1,11] 1
tbox[3,1,12] 1
tbox[3,1,13] 1
tbox[3,1,14] 1
tbox[3,2,0] 0
tbox[3,2,1] 0
tbox[3,2,2] 0
tbox[3,2,3] 0
tbox[3,2,4] 0
tbox[3,2,5] 1
tbox[3,2,6] 1
tbox[3,2,7] 1
tbox[3,2,8] 1
tbox[3,2,9] 1
tbox[3,2,10] 1
tbox[3,2,11] 1
tbox[3,2,12] 1
tbox[3,2,13] 1
tbox[3,2,14] 1
tbox[3,3,0] 0
tbox[3,3,1] 0
tbox[3,3,2] 0
tbox[3,3,3] 1
tbox[3,3,4] 1
tbox[3,3,5] 1
tbox[3,3,6] 1
tbox[3,3,7] 1
tbox[3,3,8] 1
tbox[3,3,9] 1
tbox[3,3,10] 1
tbox[3,3,11] 1
tbox[3,3,12] 1
tbox[3,3,13] 1
tbox[3,3,14] 1
unkn[0,0,0] 1
unkn[0,0,1] 1
unkn[0,0,2] 1
unkn[0,0,3] 1
unkn[0,0,4] 1
unkn[0,0,5] 1
unkn[0,0,6] 1
unkn[0,0,7] 1
unkn[0,0,8] 1
unkn[0,0,9] 1
unkn[0,0,10] 1
unkn[0,0,11] 1
unkn[0,0,12] 1
unkn[0,0,13] 1
unkn[0,0,14] 1
unkn[0,1,0] 1
unkn[0,1,1] 1
unkn[0,1,2] 1
unkn[0,1,3] 1
unkn[0,1,4] 1
unkn[0,1,5] 1
unkn[0,1,6] 1
unkn[0,1,7] 1
unkn[0,1,8] 1
unkn[0,1,9] 1
unkn[0,1,10] 1
unkn[0,1,11] 1
unkn[0,1,12] 1
unkn[0,1,13] 1
unkn[0,1,14] 1
unkn[0,2,0] 1
unkn[0,2,1] 1
unkn[0,2,2] 1
unkn[0,2,3] 1
unkn[0,2,4] 1
unkn[0,2,5] 1
unkn[0,2,6] 1
unkn[0,2,7] 1
unkn[0,2,8] 1
unkn[0,2,9] 1
unkn[0,2,10] 1
unkn[0,2,11] 1
unkn[0,2,12] 1
unkn[0,2,13] 1
unkn[0,2,14] 1
unkn[0,3,0] 1
unkn[0,3,1] 1
unkn[0,3,2] 1
unkn[0,3,3] 1
unkn[0,3,4] 1
unkn[0,3,5] 1
unkn[0,3,6] 1
unkn[0,3,7] 1
unkn[0,3,8] 1
unkn[0,3,9] 1
unkn[0,3,10] 1
unkn[0,3,11] 1
unkn[0,3,12] 1
unkn[0,3,13] 1
unkn[0,3,14] 1
unkn[1,0,0] 1
unkn[1,0,1] 1
unkn[1,0,2] 1
unkn[1,0,3] 1
unkn[1,0,4] 1
unkn[1,0,5] 1
unkn[1,0,6] 1
unkn[1,0,7] 1
unkn[1,0,8] 1
unkn[1,0,9] 1
unkn[1,0,10] 1
unkn[1,0,11] 1
unkn[1,0,12] 1
unkn[1,0,13] 1
unkn[1,0,14] 1
unkn[1,1,0] 1
unkn[1,1,1] 1
unkn[1,1,2] 1
unkn[1,1,3] 1
unkn[1,1,4] 1
unkn[1,1,5] 1
unkn[1,1,6] 1
unkn[1,1,7] 1
unkn[1,1,8] 1
unkn[1,1,9] 1
unkn[1,1,10] 1
unkn[1,1,11] 1
unkn[1,1,12] 1
unkn[1,1,13] 1
unkn[1,1,14] 1
unkn[1,2,0] 1
unkn[1,2,1] 1
unkn[1,2,2] 1
unkn[1,2,3] 1
unkn[1,2,4] 1
unkn[1,2,5] 1
unkn[1,2,6] 1
unkn[1,2,7] 1
unkn[1,2,8] 1
unkn[1,2,9] 1
unkn[1,2,10] 1
unkn[1,2,11] 1
unkn[1,2,12] 1
unkn[1,2,13] 1
unkn[1,2,14] 1
unkn[1,3,0] 1
unkn[1,3,1] 1
unkn[1,3,2] 1
unkn[1,3,3] 1
unkn[1,3,4] 1
unkn[1,3,5] 1
unkn[1,3,6] 1
unkn[1,3,7] 1
unkn[1,3,8] 1
unkn[1,3,9] 1
unkn[1,3,10] 1
unkn[1,3,11] 1
unkn[1,3,12] 1
unkn[1,3,13] 1
unkn[1,3,14] 1
unkn[2,0,0] 1
unkn[2,0,1] 1
unkn[2,0,2] 1
unkn[2,0,3] 1
unkn[2,0,4] 1
unkn[2,0,5] 1
unkn[2,0,6] 1
unkn[2,0,7] 1
unkn[2,0,8] 1
unkn[2,0,9] 1
unkn[2,0,10] 1
unkn[2,0,11] 1
unkn[2,0,12] 1
unkn[2,0,13] 1
unkn[2,0,14] 1
unkn[2,1,0] 1
unkn[2,1,1] 1
unkn[2,1,2] 1
unkn[2,1,3] 1
unkn[2,1,4] 1
unkn[2,1,5] 1
unkn[2,1,6] 1
unkn[2,1,7] 1
unkn[2,1,8] 1
unkn[2,1,9] 1
unkn[2,1,10] 1
unkn[2,1,11] 1
unkn[2,1,12] 1
unkn[2,1,13] 1
unkn[2,1,14] 1
unkn[2,2,0] 1
unkn[2,2,1] 1
unkn[2,2,2] 1
unkn[2,2,3] 1
unkn[2,2,4] 1
unkn[2,2,5] 1
unkn[2,2,6] 1
unkn[2,2,7] 1
unkn[2,2,8] 1
unkn[2,2,9] 1
unkn[2,2,10] 1
unkn[2,2,11] 1
unkn[2,2,12] 1
unkn[2,2,13] 1
unkn[2,2,14] 1
unkn[2,3,0] 1
unkn[2,3,1] 1
unkn[2,3,2] 1
unkn[2,3,3] 1
unkn[2,3,4] 1
unkn[2,3,5] 1
unkn[2,3,6] 1
unkn[2,3,7] 1
unkn[2,3,8] 1
unkn[2,3,9] 1
unkn[2,3,10] 1
unkn[2,3,11] 1
unkn[2,3,12] 1
unkn[2,3,13] 1
unkn[2,3,14] 1
unkn[3,0,0] 1
unkn[3,0,1] 1
unkn[3,0,2] 1
unkn[3,0,3] 1
unkn[3,0,4] 1
unkn[3,0,5] 1
unkn[3,0,6] 1
unkn[3,0,7] 1
unkn[3,0,8] 1
unkn[3,0,9] 1
unkn[3,0,10] 1
unkn[3,0,11] 1
unkn[3,0,12] 1
unkn[3,0,13] 1
unkn[3,0,14] 1
unkn[3,1,0] 1
unkn[3,1,1] 1
unkn[3,1,2] 1
unkn[3,1,3] 1
unkn[3,1,4] 1
unkn[3,1,5] 1
unkn[3,1,6] 1
unkn[3,1,7] 1
unkn[3,1,8] 1
unkn[3,1,9] 1
unkn[3,1,10] 1
unkn[3,1,11] 1
unkn[3,1,12] 1
unkn[3,1,13] 1
unkn[3,1,14] 1
unkn[3,2,0] 1
unkn[3,2,1] 1
unkn[3,2,2] 1
unkn[3,2,3] 1
unkn[3,2,4] 1
unkn[3,2,5] 1
unkn[3,2,6] 1
unkn[3,2,7] 1
unkn[3,2,8] 1
unkn[3,2,9] 1
unkn[3,2,10] 1
unkn[3,2,11] 1
unkn[3,2,12] 1
unkn[3,2,13] 1
unkn[3,2,14] 1
unkn[3,3,0] 1
unkn[3,3,1] 1
unkn[3,3,2] 1
unkn[3,3,3] 1
unkn[3,3,4] 1
unkn[3,3,5] 1
unkn[3,3,6] 1
unkn[3,3,7] 1
unkn[3,3,8] 1
unkn[3,3,9] 1
unkn[3,3,10] 1
unkn[3,3,11] 1
unkn[3,3,12] 1
unkn[3,3,13] 1
unkn[3,3,14] 1
forg[0,0,0] 0
forg[0,0,1] 0
forg[0,0,2] 0
forg[0,0,3] 0
forg[0,0,4] 0
forg[0,0,5] 0
forg[0,0,6] 0
forg[0,0,7] 0
forg[0,0,8] 0
forg[0,0,9] 0
forg[0,0,10] 0
forg[0,0,11] 0
forg[0,0,12] 0
forg[0,0,13] 0
forg[0,0,14] 0
forg[0,1,0] 0
forg[0,1,1] 0
forg[0,1,2] 0
forg[0,1,3] 0
forg[0,1,4] 0
forg[0,1,5] 0
forg[0,1,6] 0
forg[0,1,7] 0
forg[0,1,8] 0
forg[0,1,9] 0
forg[0,1,10] 0
forg[0,1,11] 0
forg[0,1,12] 0
forg[0,1,13] 0
forg[0,1,14] 0
forg[0,2,0] 0
forg[0,2,1] 0
forg[0,2,2] 0
forg[0,2,3] 0
forg[0,2,4] 0
forg[0,2,5] 0
forg[0,2,6] 0
forg[0,2,7] 0
forg[0,2,8] 0
forg[0,2,9] 0
forg[0,2,10] 0
forg[0,2,11] 0
forg[0,2,12] 0
forg[0,2,13] 0
forg[0,2,14] 0
forg[0,3,0] 0
forg[0,3,1] 0
forg[0,3,2] 0
forg[0,3,3] 0
forg[0,3,4] 0
forg[0,3,5] 0
forg[0,3,6] 0
forg[0,3,7] 0
forg[0,3,8] 0
forg[0,3,9] 0
forg[0,3,10] 0
forg[0,3,11] 0
forg[0,3,12] 0
forg[0,3,13] 0
forg[0,3,14] 0
forg[1,0,0] 0
forg[1,0,1] 0
forg[1,0,2] 0
forg[1,0,3] 0
forg[1,0,4] 0
forg[1,0,5] 0
forg[1,0,6] 0
forg[1,0,7] 0
forg[1,0,8] 0
forg[1,0,9] 0
forg[1,0,10] 0
forg[1,0,11] 0
forg[1,0,12] 0
forg[1,0,13] 0
forg[1,0,14] 0
forg[1,1,0] 0
forg[1,1,1] 0
forg[1,1,2] 0
forg[1,1,3] 0
forg[1,1,4] 0
forg[1,1,5] 0
forg[1,1,6] 0
forg[1,1,7] 0
forg[1,1,8] 0
forg[1,1,9] 0
forg[1,1,10] 0
forg[1,1,11] 0
forg[1,1,12] 0
forg[1,1,13] 0
forg[1,1,14] 0
forg[1,2,0] 0
forg[1,2,1] 0
forg[1,2,2] 0
forg[1,2,3] 0
forg[1,2,4] 0
forg[1,2,5] 0
forg[1,2,6] 0
forg[1,2,7] 0
forg[1,2,8] 0
forg[1,2,9] 0
forg[1,2,10] 0
forg[1,2,11] 0
forg[1,2,12] 0
forg[1,2,13] 0
forg[1,2,14] 0
forg[1,3,0] 0
forg[1,3,1] 0
forg[1,3,2] 0
forg[1,3,3] 0
forg[1,3,4] 0
forg[1,3,5] 0
forg[1,3,6] 0
forg[1,3,7] 0
forg[1,3,8] 0
forg[1,3,9] 0
forg[1,3,10] 0
forg[1,3,11] 0
forg[1,3,12] 0
forg[1,3,13] 0
forg[1,3,14] 0
forg[2,0,0] 0
forg[2,0,1] 0
forg[2,0,2] 0
forg[2,0,3] 0
forg[2,0,4] 0
forg[2,0,5] 0
forg[2,0,6] 0
forg[2,0,7] 0
forg[2,0,8] 0
forg[2,0,9] 0
forg[2,0,10] 0
forg[2,0,11] 0
forg[2,0,12] 0
forg[2,0,13] 0
forg[2,0,14] 0
forg[2,1,0] 0
forg[2,1,1] 0
forg[2,1,2] 0
forg[2,1,3] 0
forg[2,1,4] 0
forg[2,1,5] 0
forg[2,1,6] 0
forg[2,1,7] 0
forg[2,1,8] 0
forg[2,1,9] 0
forg[2,1,10] 0
forg[2,1,11] 0
forg[2,1,12] 0
forg[2,1,13] 0
forg[2,1,14] 0
forg[2,2,0] 0
forg[2,2,1] 0
forg[2,2,2] 0
forg[2,2,3] 0
forg[2,2,4] 0
forg[2,2,5] 0
forg[2,2,6] 0
forg[2,2,7] 0
forg[2,2,8] 0
forg[2,2,9] 0
forg[2,2,10] 0
forg[2,2,11] 0
forg[2,2,12] 0
forg[2,2,13] 0
forg[2,2,14] 0
forg[2,3,0] 0
forg[2,3,1] 0
forg[2,3,2] 0
forg[2,3,3] 0
forg[2,3,4] 0
forg[2,3,5] 0
forg[2,3,6] 0
forg[2,3,7] 0
forg[2,3,8] 0
forg[2,3,9] 0
forg[2,3,10] 0
forg[2,3,11] 0
forg[2,3,12] 0
forg[2,3,13] 0
forg[2,3,14] 0
forg[3,0,0] 0
forg[3,0,1] 0
forg[3,0,2] 0
forg[3,0,3] 0
forg[3,0,4] 0
forg[3,0,5] 0
forg[3,0,6] 0
forg[3,0,7] 0
forg[3,0,8] 0
forg[3,0,9] 0
forg[3,0,10] 0
forg[3,0,11] 0
forg[3,0,12] 0
forg[3,0,13] 0
forg[3,0,14] 0
forg[3,1,0] 0
forg[3,1,1] 0
forg[3,1,2] 0
forg[3,1,3] 0
forg[3,1,4] 0
forg[3,1,5] 0
forg[3,1,6] 0
forg[3,1,7] 0
forg[3,1,8] 0
forg[3,1,9] 0
forg[3,1,10] 0
forg[3,1,11] 0
forg[3,1,12] 0
forg[3,1,13] 0
forg[3,1,14] 0
forg[3,2,0] 0
forg[3,2,1] 0
forg[3,2,2] 0
forg[3,2,3] 0
forg[3,2,4] 0
forg[3,2,5] 0
forg[3,2,6] 0
forg[3,2,7] 0
forg[3,2,8] 0
forg[3,2,9] 0
forg[3,2,10] 0
forg[3,2,11] 0
forg[3,2,12] 0
forg[3,2,13] 0
forg[3,2,14] 0
forg[3,3,0] 0
forg[3,3,1] 0
forg[3,3,2] 0
forg[3,3,3] 0
forg[3,3,4] 0
forg[3,3,5] 0
forg[3,3,6] 0
forg[3,3,7] 0
forg[3,3,8] 0
forg[3,3,9] 0
forg[3,3,10] 0
forg[3,3,11] 0
forg[3,3,12] 0
forg[3,3,13] 0
forg[3,3,14] 0
cost[0,0,0] 0
cost[0,0,1] 0
cost[0,0,2] 0
cost[0,0,3] 0
cost[0,0,4] 0
cost[0,0,5] 0
cost[0,0,6] 2
cost[0,0,7] 0
cost[0,0,8] 0
cost[0,0,9] 2
cost[0,0,10] 0
cost[0,0,11] 0
cost[0,0,12] 0
cost[0,0,13] 2
cost[0,0,14] 0
cost[0,1,0] 0
cost[0,1,1] 0
cost[0,1,2] 2
cost[0,1,3] 0
cost[0,1,4] 0
cost[0,1,5] 0
cost[0,1,6] 0
cost[0,1,7] 0
cost[0,1,8] 2
cost[0,1,9] 0
cost[0,1,10] 2
cost[0,1,11] 0
cost[0,1,12] 2
cost[0,1,13] 0
cost[0,1,14] 0
cost[0,2,0] 0
cost[0,2,1] 2
cost[0,2,2] 0
cost[0,2,3] 0
cost[0,2,4] 0
cost[0,2,5] 0
cost[0,2,6] 0
cost[0,2,7] 0
cost[0,2,8] 0
cost[0,2,9] 2
cost[0,2,10] 0
cost[0,2,11] 0
cost[0,2,12] 0
cost[0,2,13] 0
cost[0,2,14] 0
cost[0,3,0] 0
cost[0,3,1] 0
cost[0,3,2] 0
cost[0,3,3] 2
cost[0,3,4] 0
cost[0,3,5] 0
cost[0,3,6] 0
cost[0,3,7] 0
cost[0,3,8] 2
cost[0,3,9] 0
cost[0,3,10] 0
cost[0,3,11] 0
cost[0,3,12] 0
cost[0,3,13] 0
cost[0,3,14] 0
cost[1,0,0] 0
cost[1,0,1] 0
cost[1,0,2] 0
cost[1,0,3] 0
cost[1,0,4] 0
cost[1,0,5] 0
cost[1,0,6] 0
cost[1,0,7] 0
cost[1,0,8] 0
cost[1,0,9] 0
cost[1,0,10] 2
cost[1,0,11] 0
cost[1,0,12] 0
cost[1,0,13] 0
cost[1,0,14] 0
cost[1,1,0] 0
cost[1,1,1] 0
cost[1,1,2] 0
cost[1,1,3] 2
cost[1,1,4] 0
cost[1,1,5] 2
cost[1,1,6] 0
cost[1,1,7] 0
cost[1,1,8] 2
cost[1,1,9] 2
cost[1,1,10] 0
cost[1,1,11] 2
cost[1,1,12] 2
cost[1,1,13] 0
cost[1,1,14] 0
cost[1,2,0] 0
cost[1,2,1] 2
cost[1,2,2] 2
cost[1,2,3] 0
cost[1,2,4] 0
cost[1,2,5] 0
cost[1,2,6] 0
cost[1,2,7] 2
cost[1,2,8] 0
cost[1,2,9] 2
cost[1,2,10] 2
cost[1,2,11] 0
cost[1,2,12] 2
cost[1,2,13] 0
cost[1,2,14] 0
cost[1,3,0] 0
cost[1,3,1] 0
cost[1,3,2] 0
cost[1,3,3] 0
cost[1,3,4] 0
cost[1,3,5] 0
cost[1,3,6] 0
cost[1,3,7] 0
cost[1,3,8] 2
cost[1,3,9] 0
cost[1,3,10] 0
cost[1,3,11] 0
cost[1,3,12] 0
cost[1,3,13] 0
cost[1,3,14] 0
cost[2,0,0] 0
cost[2,0,1] 2
cost[2,0,2] 0
cost[2,0,3] 2
cost[2,0,4] 0
cost[2,0,5] 0
cost[2,0,6] 2
cost[2,0,7] 0
cost[2,0,8] 0
cost[2,0,9] 2
cost[2,0,10] 0
cost[2,0,11] 2
cost[2,0,12] 0
cost[2,0,13] 0
cost[2,0,14] 0
cost[2,1,0] 0
cost[2,1,1] 0
cost[2,1,2] 2
cost[2,1,3] 0
cost[2,1,4] 0
cost[2,1,5] 0
cost[2,1,6] 0
cost[2,1,7] 0
cost[2,1,8] 0
cost[2,1,9] 0
cost[2,1,10] 0
cost[2,1,11] 0
cost[2,1,12] 0
cost[2,1,13] 0
cost[2,1,14] 0
cost[2,2,0] 0
cost[2,2,1] 0
cost[2,2,2] 0
cost[2,2,3] 0
cost[2,2,4] 0
cost[2,2,5] 0
cost[2,2,6] 0
cost[2,2,7] 0
cost[2,2,8] 0
cost[2,2,9] 2
cost[2,2,10] 0
cost[2,2,11] 0
cost[2,2,12] 0
cost[2,2,13] 0
cost[2,2,14] 0
cost[2,3,0] 0
cost[2,3,1] 0
cost[2,3,2] 2
cost[2,3,3] 0
cost[2,3,4] 0
cost[2,3,5] 0
cost[2,3,6] 0
cost[2,3,7] 0
cost[2,3,8] 2
cost[2,3,9] 0
cost[2,3,10] 2
cost[2,3,11] 0
cost[2,3,12] 0
cost[2,3,13] 0
cost[2,3,14] 0
cost[3,0,0] 0
cost[3,0,1] 0
cost[3,0,2] 0
cost[3,0,3] 0
cost[3,0,4] 0
cost[3,0,5] 0
cost[3,0,6] 0
cost[3,0,7] 0
cost[3,0,8] 0
cost[3,0,9] 0
cost[3,0,10] 0
cost[3,0,11] 0
cost[3,0,12] 0
cost[3,0,13] 0
cost[3,0,14] 0
cost[3,1,0] 0
cost[3,1,1] 0
cost[3,1,2] 0
cost[3,1,3] 0
cost[3,1,4] 0
cost[3,1,5] 2
cost[3,1,6] 0
cost[3,1,7] 0
cost[3,1,8] 2
cost[3,1,9] 0
cost[3,1,10] 0
cost[3,1,11] 0
cost[3,1,12] 2
cost[3,1,13] 0
cost[3,1,14] 0
cost[3,2,0] 0
cost[3,2,1] 2
cost[3,2,2] 0
cost[3,2,3] 0
cost[3,2,4] 2
cost[3,2,5] 0
cost[3,2,6] 0
cost[3,2,7] 0
cost[3,2,8] 0
cost[3,2,9] 2
cost[3,2,10] 0
cost[3,2,11] 0
cost[3,2,12] 0
cost[3,2,13] 0
cost[3,2,14] 0
cost[3,3,0] 0
cost[3,3,1] 0
cost[3,3,2] 0
cost[3,3,3] 2
cost[3,3,4] 0
cost[3,3,5] 0
cost[3,3,6] 0
cost[3,3,7] 0
cost[3,3,8] 2
cost[3,3,9] 0
cost[3,3,10] 0
cost[3,3,11] 0
cost[3,3,12] 0
cost[3,3,13] 0
cost[3,3,14] 0
lane[0,0] 0
lane[0,1] 0
lane[0,2] 1
lane[0,3] 1
lane[1,0] 0
lane[1,1] 0
lane[1,2] 0
lane[1,3] 1
lane[2,0] 0
lane[2,1] 0
lane[2,2] 1
lane[2,3] 0
lane[3,0] 0
lane[3,1] 0
lane[3,2] 1
lane[3,3] 0
